unsat
(:added-eqs                   148972
 :arith-eq-adapter            1351
 :arith-bound-propagations-lp 11592
 :arith-conflicts             50
 :arith-diseq                 9907
 :arith-fixed-eqs             5093
 :arith-lower                 12192
 :arith-make-feasible         6256
 :arith-max-columns           593
 :arith-max-rows              259
 :arith-offset-eqs            3952
 :arith-upper                 13903
 :binary-propagations         495827
 :conflicts                   2668
 :decisions                   139577
 :del-clause                  5566
 :elim-unconstrained          2
 :max-memory                  26.97
 :memory                      21.16
 :minimized-lits              5399
 :mk-bool-var                 7756
 :mk-clause                   6097
 :mk-clause-binary            7946
 :num-allocs                  25189120
 :num-checks                  1
 :propagations                644352
 :restarts                    22
 :rlimit-count                7858074
 :time                        3.11
 :total-time                  3.27)
